
  16    0


   0  10 2 3 4 5 6 11 12 13 14 15 
  10   3 10 9 7 
   2   2 10 7 
   3   2 8 7 
   4   1 9 
   1   1 8 
   7   1 16
   1   1 16
   4   1 16
   8   1 16
   4   1 16
   4   1 16
   9   1 16
   7   1 16
   8   1 16
   0   0 
